
(set-logic QF_FD)
(declare-const num_couriers Int)
(assert (= num_couriers 6))
(declare-const num_items Int)
(assert (= num_items 9))
(declare-const courier_1_size Int)
(assert (= courier_1_size 190))
(declare-const courier_2_size Int)
(assert (= courier_2_size 185))
(declare-const courier_3_size Int)
(assert (= courier_3_size 185))
(declare-const courier_4_size Int)
(assert (= courier_4_size 190))
(declare-const courier_5_size Int)
(assert (= courier_5_size 195))
(declare-const courier_6_size Int)
(assert (= courier_6_size 185))
(declare-const item_1_size Int)
(assert (= item_1_size 11))
(declare-const item_2_size Int)
(assert (= item_2_size 11))
(declare-const item_3_size Int)
(assert (= item_3_size 23))
(declare-const item_4_size Int)
(assert (= item_4_size 16))
(declare-const item_5_size Int)
(assert (= item_5_size 2))
(declare-const item_6_size Int)
(assert (= item_6_size 1))
(declare-const item_7_size Int)
(assert (= item_7_size 24))
(declare-const item_8_size Int)
(assert (= item_8_size 14))
(declare-const item_9_size Int)
(assert (= item_9_size 20))
(check-sat)
(get-model)